<number of tasks>
50

<cycle time>
1000

<order strength>
0.602


<task times>
1 449
2 377
3 701
4 522
5 513
6 649
7 276
8 507
9 293
10 385
11 471
12 446
13 534
14 587
15 646
16 485
17 604
18 621
19 400
20 541
21 328
22 477
23 395
24 558
25 412
26 586
27 565
28 510
29 279
30 275
31 421
32 566
33 537
34 506
35 632
36 515
37 525
38 380
39 482
40 683
41 441
42 421
43 340
44 590
45 662
46 691
47 573
48 407
49 443
50 385

<precedence relations>
1,5
2,8
3,6
3,7
3,16
3,17
4,9
4,10
5,12
6,13
7,14
8,15
9,11
9,15
9,16
9,17
10,17
11,18
12,19
13,20
14,20
15,20
15,21
15,27
16,20
16,21
16,27
17,20
17,21
17,27
18,22
19,23
20,24
20,25
21,24
21,25
22,27
23,26
24,28
24,30
25,28
25,29
25,30
26,31
27,36
27,41
27,50
28,31
28,32
28,33
29,34
29,39
30,32
30,33
30,34
30,45
31,35
31,36
31,37
31,38
31,39
32,36
32,37
32,38
32,39
32,49
33,36
33,38
33,39
34,36
34,38
35,40
38,41
39,42
39,50
40,45
41,43
42,44
42,46
43,47
44,48
45,49
45,50

<end>
